136
100
15
2
4
37
35
19
23
3
16
38
20
23
27
47
4
7
23
21
28
14
19
32
47
8
18
12
6
19
38
13
48
39
16
9
13
39
17
41
11
7
47
9
34
26
36
10
22
42
25
16
14
5
42
36
16
46
41
46
19
11
4
14
32
26
25
25
17
21
48
10
11
26
15
4
10
48
37
1
35
34
32
9
42
31
27
23
33
6
36
3
11
28
32
4
19
25
29
2
14
17
13
29
1
35
12
9
3
4
50
9
29
23
9
12
22
46
18
3
14
46
7
18
11
1
27
31
14
46
1
20
1
40
35
42
26
26
